64 22 18 48 25 
92 33 28 30 34 50 80 
59 75 87 97 74 
14 47 73 78 53 55 68 
83 23 21 19 49 20 24 
82 11 10 13 17 
5 45 2 8 79 46 60 
12 15 16 9 58 77 
65 52 99 86 57 66 
42 44 43 37 35 
31 29 27 26 32 93 
63 85 84 56 
71 67 94 
61 81 90 
72 39 36 40 38 41 54 96 
69 98 88 7 6 3 1 4 100 70 
95 62 51 76 89 91 
